(set-logic ALL)
(set-option :produce-models true)
(declare-sort BoundSet 0)
(declare-sort UnboundSet 0)
(set-option :finite-model-find true)
(declare-fun IsImportantFor (BoundSet BoundSet) Bool)
(declare-fun IsClimate (BoundSet) Bool)
(declare-fun IsNotImportantFor (BoundSet BoundSet) Bool)
(declare-fun DidNotConsider (BoundSet) Bool)
(assert (not (=> (exists ((c BoundSet)) (exists ((a BoundSet)) (and (IsImportantFor a c) (IsClimate c)))) (exists ((e BoundSet)) (exists ((a BoundSet)) (exists ((d BoundSet)) (and (IsNotImportantFor a d) (DidNotConsider e))))))))
(check-sat)
(get-model)